benchmarks_vrp/CMT12/min_c/CMT12_3.vrp
NAME: CMT12_3
TYPE: CVRP
COMMENT: 819.56 - Cluster Nr.3
DIMENSION: 14
CAPACITY: 200
EDGE_WEIGHT_TYPE: EUC_2D
NODE_COORD_TYPE: TWOD_COORDS
NODE_COORD_SECTION: 
2 32 30
3 33 32
9 30 30
12 25 35
13 35 30
4 28 30
6 30 32
11 28 35
10 33 35
8 35 32
7 26 32
14 25 30
1 30 35
5 40 50
DEPOT_SECTION: 
5
-1
DEMAND_SECTION: 
13 10
7 10
10 10
3 20
2 10
6 30
5 0
14 10
8 10
9 10
1 10
11 10
12 10
4 10
EOF
