benchmarks_vrp/CMT12/min_c/CMT12_3.tour
NAME: CMT12_3 solution
TYPE: TOUR
TOUR_SECTION:
5 1 11 12 7 14 4 6 9 2 13 8 3 10 -1
-1
EOF